language ESSENCE' 1.0
letting lastdx=97
letting cage be [
[29,7,13,7,14,8,14,9,14,0,0],
[15,11,3,12,3,12,2,0,0, 0,0],
[35,7,5,6,5,5,5,5,4,0,0],
[25,3,12,3,11,2,11,0,0, 0,0],
[10,13,16,0,0, 0,0, 0,0, 0,0],
[6,16,8,15,8,0,0, 0,0, 0,0],
[1,3,13,0,0, 0,0, 0,0, 0,0],
[47,8,2,7,2,6,2,5,2,5,1],
[38,5,6,4,6,4,7,4,8,3,8],
[14,13,5,0,0, 0,0, 0,0, 0,0],
[41,3,16,2,16,2,15,3,15,0,0],
[24,11,11,11,10,12,10,0,0, 0,0],
[31,16,14,16,15,16,16,0,0, 0,0],
[7,3,2,0,0, 0,0, 0,0, 0,0],
[40,12,5,12,4,13,4,14,4,0,0],
[16,15,5,0,0, 0,0, 0,0, 0,0],
[41,13,9,14,9,14,10,13,10,13,11],
[1,2,10,0,0, 0,0, 0,0, 0,0],
[21,9,3,8,3,0,0, 0,0, 0,0],
[34,11,12,10,12,10,11,9,11,9,10],
[35,4,4,3,4,3,5,4,5,0,0],
[16,4,15,0,0, 0,0, 0,0, 0,0],
[35,2,2,2,1,1,1,0,0, 0,0],
[23,9,1,10,1,0,0, 0,0, 0,0],
[12,4,12,0,0, 0,0, 0,0, 0,0],
[18,7,1,6,1,8,1,0,0, 0,0],
[7,5,16,4,16,0,0, 0,0, 0,0],
[44,6,4,6,3,5,3,4,3,0,0],
[16,14,14,0,0, 0,0, 0,0, 0,0],
[27,14,8,13,8,12,8,0,0, 0,0],
[21,3,1,4,1,4,2,0,0, 0,0],
[14,9,2,10,2,0,0, 0,0, 0,0],
[3,15,13,0,0, 0,0, 0,0, 0,0],
[31,15,12,16,12,16,13,0,0, 0,0],
[25,8,10,8,11,7,11,0,0, 0,0],
[15,11,7,10,7,0,0, 0,0, 0,0],
[43,8,13,9,13,10,13,11,13,0,0],
[16,1,4,2,4,0,0, 0,0, 0,0],
[34,9,9,10,9,10,10,0,0, 0,0],
[31,13,1,13,2,13,3,0,0, 0,0],
[44,12,9,11,9,11,8,10,8,0,0],
[14,8,6,9,6,0,0, 0,0, 0,0],
[20,7,10,7,9,8,9,0,0, 0,0],
[5,2,12,0,0, 0,0, 0,0, 0,0],
[36,6,14,6,15,7,15,8,15,0,0],
[33,5,15,5,14,4,14,4,13,0,0],
[36,16,3,16,4,16,5,16,6,15,6],
[15,1,16,0,0, 0,0, 0,0, 0,0],
[12,2,7,0,0, 0,0, 0,0, 0,0],
[33,9,5,9,4,8,4,8,5,0,0],
[11,1,5,0,0, 0,0, 0,0, 0,0],
[44,10,4,10,3,11,4,11,5,10,5],
[13,6,10,5,10,0,0, 0,0, 0,0],
[2,9,12,0,0, 0,0, 0,0, 0,0],
[12,6,13,0,0, 0,0, 0,0, 0,0],
[6,11,2,0,0, 0,0, 0,0, 0,0],
[39,1,13,1,12,1,11,1,10,1,9],
[4,3,9,0,0, 0,0, 0,0, 0,0],
[16,13,13,14,13,0,0, 0,0, 0,0],
[10,1,15,0,0, 0,0, 0,0, 0,0],
[4,6,11,0,0, 0,0, 0,0, 0,0],
[23,7,3,7,4,0,0, 0,0, 0,0],
[8,9,8,0,0, 0,0, 0,0, 0,0],
[19,15,16,15,15,15,14,0,0, 0,0],
[60,7,12,8,12,6,12,5,12,5,13],
[49,5,9,4,9,4,10,3,10,0,0],
[25,12,16,11,16,11,15,12,15,0,0],
[16,14,11,14,12,13,12,0,0, 0,0],
[25,6,7,5,7,5,8,0,0, 0,0],
[37,12,7,13,7,13,6,12,6,0,0],
[16,15,2,14,2,0,0, 0,0, 0,0],
[20,2,6,2,5,0,0, 0,0, 0,0],
[15,15,10,15,9,0,0, 0,0, 0,0],
[21,4,11,5,11,0,0, 0,0, 0,0],
[15,3,6,3,7,0,0, 0,0, 0,0],
[31,2,9,2,8,1,8,0,0, 0,0],
[6,1,6,1,7,0,0, 0,0, 0,0],
[29,15,11,16,11,0,0, 0,0, 0,0],
[22,12,12,12,11,12,13,0,0, 0,0],
[24,15,3,14,3,15,4,0,0, 0,0],
[10,6,6,0,0, 0,0, 0,0, 0,0],
[17,1,2,1,3,0,0, 0,0, 0,0],
[23,1,14,2,14,2,13,3,14,0,0],
[10,2,3,3,3,0,0, 0,0, 0,0],
[22,6,8,6,9,7,8,0,0, 0,0],
[4,7,6,7,7,0,0, 0,0, 0,0],
[33,8,7,8,8,9,7,0,0, 0,0],
[29,10,6,11,6,0,0, 0,0, 0,0],
[25,10,14,11,14,0,0, 0,0, 0,0],
[12,10,15,10,16,0,0, 0,0, 0,0],
[15,11,1,12,1,0,0, 0,0, 0,0],
[14,12,14,0,0, 0,0, 0,0, 0,0],
[26,13,14,13,15,14,15,14,16,0,0],
[6,14,1,0,0, 0,0, 0,0, 0,0],
[14,14,5,14,6,14,7,0,0, 0,0],
[17,15,1,16,1,16,2,0,0, 0,0],
[24,15,7,16,7,0,0, 0,0, 0,0],
[19,16,9,16,10,0,0, 0,0, 0,0]
]
